etc/upTests/tupley32-7-2/0001.eprime
language ESSENCE' 1.0

find pain_tuple1: matrix indexed by [int(1)] of int(2)
find pain_tuple2_tuple1_tuple1: matrix indexed by [int(1)] of int(10)
find pain_tuple2_tuple1_tuple2: matrix indexed by [int(1)] of int(11)
find pain_tuple2_tuple2: matrix indexed by [int(1)] of int(12)
find pain_tuple3: matrix indexed by [int(1)] of int(14)
find pain_tuple4_SetExplicit_tuple1:
        matrix indexed by [int(1), int(1..1)] of int(15)
find pain_tuple4_SetExplicit_tuple2:
        matrix indexed by [int(1), int(1..1)] of int(16)
such that
    pain_tuple4_SetExplicit_tuple1[1, 1] = 15,
    pain_tuple4_SetExplicit_tuple2[1, 1] = 16,
    pain_tuple1[1] = 2,
    pain_tuple2_tuple1_tuple1[1] = 10,
    pain_tuple2_tuple1_tuple2[1] = 11,
    pain_tuple2_tuple2[1] = 12,
    pain_tuple3[1] = 14,
    15 = pain_tuple4_SetExplicit_tuple1[1, 1],
    16 = pain_tuple4_SetExplicit_tuple2[1, 1]
