etc/upTests/tupley32-7-2/0001.eprime.solution
language ESSENCE' 1.0
$ minion Nodes: 1
$ minion TotalTime: 0.000613
$ Savile Row TotalTime: 0.27
letting pain_tuple4_SetExplicit_tuple1 be [[15;int(1..1)];int(1)]
letting pain_tuple4_SetExplicit_tuple2 be [[16;int(1..1)];int(1)]
letting pain_tuple1 be [2;int(1)]
letting pain_tuple3 be [14;int(1)]
letting pain_tuple2_tuple1_tuple2 be [11;int(1)]
letting pain_tuple2_tuple1_tuple1 be [10;int(1)]
letting pain_tuple2_tuple2 be [12;int(1)]
